1428
376
587
2916
1422
1015
884
565
2183
794
2254
2450
313
143
1834
1750
2300
2863
3818
3324
1056
3778
2103
2467
2661
3678
1563
1554
2736
991
1787
3892
1296
2920
3064
1909
179
3135
2472
1465
654
1930
2851
517
2421
1000
265
1780
698
3686
3069
3082
3863
1774
2748
3785
1094
1344
2938
3592
2575
327
3171
1177
2071
3069
2988
3921
1033
1527
2620
1775
1264
3423
1431
745
1982
2394
1938
3855
929
227
2974
3066
2134
3036
1242
3835
2686
3263
3283
1613
3303
2822
3047
1503
2722
989
1057
2841
